p cnf 533 1572
a 8 10 12 14 0
d 1 8 0
d 2 10 0
d 4 12 0
d 6 14 0
d 3 8 10 0
d 5 8 10 12 0
d 7 8 10 12 14 0
d 9 8 10 12 14 0
d 11 8 10 12 14 0
d 13 8 10 12 14 0
d 15 8 10 12 14 0
d 16 8 0
d 17 10 0
d 18 8 10 0
d 19 8 10 12 0
d 20 8 10 12 14 0
d 21 8 10 12 14 0
d 22 8 10 12 14 0
d 23 8 10 12 14 0
d 24 8 10 12 14 0
d 25 8 10 12 14 0
d 26 12 0
d 27 8 10 12 0
d 28 8 10 12 14 0
d 29 8 10 12 14 0
d 30 8 10 12 14 0
d 31 8 10 12 14 0
d 32 8 10 12 14 0
d 33 8 10 12 14 0
d 34 8 10 0
d 35 8 10 12 0
d 36 8 10 12 14 0
d 37 8 10 12 14 0
d 38 8 10 12 14 0
d 39 8 10 12 14 0
d 40 8 10 12 14 0
d 41 8 10 12 14 0
d 42 14 0
d 43 8 10 12 14 0
d 44 8 10 12 14 0
d 45 8 10 12 14 0
d 46 8 10 12 14 0
d 47 8 10 12 14 0
d 48 8 10 12 14 0
d 49 8 10 0
d 50 8 10 12 0
d 51 8 10 12 14 0
d 52 8 10 12 14 0
d 53 8 10 12 14 0
d 54 8 10 12 14 0
d 55 8 10 12 14 0
d 56 8 10 12 14 0
d 57 8 10 12 14 0
d 58 8 10 12 14 0
d 59 8 10 12 14 0
d 60 8 10 12 14 0
d 61 8 10 12 14 0
d 62 8 10 12 14 0
d 63 8 10 12 14 0
d 64 8 10 12 14 0
d 65 8 10 12 14 0
d 66 8 10 12 14 0
d 67 8 10 12 14 0
d 68 8 10 12 14 0
d 69 8 10 12 0
d 70 8 10 12 14 0
d 71 8 10 12 14 0
d 72 8 10 12 14 0
d 73 8 10 12 14 0
d 74 8 10 12 14 0
d 75 8 10 12 14 0
d 76 8 10 12 0
d 77 8 10 12 14 0
d 78 8 10 12 14 0
d 79 8 10 12 14 0
d 80 8 10 12 14 0
d 81 8 10 12 14 0
d 82 8 10 12 14 0
d 83 8 10 12 0
d 84 8 10 12 14 0
d 85 8 0
d 86 8 10 12 14 0
d 87 8 10 12 14 0
d 88 8 10 12 14 0
d 89 8 10 12 14 0
d 90 8 10 12 14 0
d 91 8 10 12 14 0
d 92 8 10 12 14 0
d 93 8 10 12 14 0
d 94 8 10 12 14 0
d 95 8 10 12 14 0
d 96 8 10 12 14 0
d 97 8 10 12 14 0
d 98 8 10 12 14 0
d 99 8 10 12 14 0
d 100 8 10 12 14 0
d 101 8 10 12 14 0
d 102 8 10 12 14 0
d 103 8 10 12 14 0
d 104 8 10 12 14 0
d 105 8 10 12 14 0
d 106 8 10 12 14 0
d 107 8 10 12 14 0
d 108 8 10 12 14 0
d 109 8 10 12 14 0
d 110 8 10 12 14 0
d 111 8 10 12 14 0
d 112 8 10 12 14 0
d 113 8 10 12 14 0
d 114 8 10 12 14 0
d 115 8 10 12 14 0
d 116 8 10 12 14 0
d 117 8 10 12 14 0
d 118 8 10 12 14 0
d 119 8 10 12 14 0
d 120 8 10 12 14 0
d 121 8 10 12 14 0
d 122 8 10 12 14 0
d 123 8 10 12 14 0
d 124 8 10 12 14 0
d 125 8 10 12 14 0
d 126 8 10 12 14 0
d 127 8 10 12 14 0
d 128 8 10 12 14 0
d 129 8 10 12 14 0
d 130 8 10 12 14 0
d 131 8 10 12 14 0
d 132 8 10 12 14 0
d 133 10 0
d 134 8 10 12 14 0
d 135 8 10 12 14 0
d 136 8 10 12 14 0
d 137 8 10 12 14 0
d 138 8 10 12 14 0
d 139 8 10 12 14 0
d 140 8 10 12 14 0
d 141 8 10 12 14 0
d 142 8 10 12 14 0
d 143 8 10 12 14 0
d 144 8 10 12 14 0
d 145 8 10 12 14 0
d 146 8 10 12 14 0
d 147 8 10 12 14 0
d 148 8 10 12 14 0
d 149 8 10 12 14 0
d 150 8 10 12 14 0
d 151 8 10 12 14 0
d 152 8 10 12 14 0
d 153 8 10 12 14 0
d 154 8 10 12 14 0
d 155 8 10 12 14 0
d 156 8 10 12 14 0
d 157 8 10 12 14 0
d 158 8 10 12 14 0
d 159 8 10 12 14 0
d 160 8 10 12 14 0
d 161 8 10 12 14 0
d 162 8 10 12 14 0
d 163 8 10 12 14 0
d 164 8 10 12 14 0
d 165 8 10 12 14 0
d 166 8 10 12 14 0
d 167 8 10 12 14 0
d 168 8 10 12 14 0
d 169 8 10 12 14 0
d 170 8 10 12 14 0
d 171 8 10 12 14 0
d 172 8 10 12 14 0
d 173 8 10 12 14 0
d 174 8 10 12 14 0
d 175 8 10 12 14 0
d 176 8 10 12 14 0
d 177 8 10 12 14 0
d 178 8 10 12 14 0
d 179 8 10 12 14 0
d 180 8 10 12 14 0
d 181 8 10 12 14 0
d 182 8 10 12 14 0
d 183 8 10 12 14 0
d 184 8 10 12 14 0
d 185 8 10 12 14 0
d 186 8 10 12 14 0
d 187 8 10 12 14 0
d 188 8 10 12 14 0
d 189 8 10 12 14 0
d 190 8 10 12 14 0
d 191 8 10 12 14 0
d 192 8 10 12 14 0
d 193 8 10 12 14 0
d 194 12 0
d 195 8 10 12 14 0
d 196 8 10 12 14 0
d 197 8 10 12 14 0
d 198 8 10 12 14 0
d 199 8 10 12 14 0
d 200 8 10 12 14 0
d 201 8 10 12 14 0
d 202 8 10 12 14 0
d 203 8 10 12 14 0
d 204 8 10 12 14 0
d 205 8 10 12 14 0
d 206 8 10 12 14 0
d 207 8 10 12 14 0
d 208 8 10 12 14 0
d 209 8 10 12 14 0
d 210 8 10 12 14 0
d 211 8 10 12 14 0
d 212 8 10 12 14 0
d 213 8 10 12 14 0
d 214 8 10 12 14 0
d 215 8 10 12 14 0
d 216 8 10 12 14 0
d 217 8 10 12 14 0
d 218 8 10 12 14 0
d 219 8 10 12 14 0
d 220 8 10 12 14 0
d 221 8 10 12 14 0
d 222 8 10 12 14 0
d 223 8 10 12 14 0
d 224 8 10 12 14 0
d 225 8 10 12 14 0
d 226 8 10 12 14 0
d 227 8 10 12 14 0
d 228 8 10 12 14 0
d 229 8 10 12 14 0
d 230 8 10 12 14 0
d 231 8 10 12 14 0
d 232 8 10 12 14 0
d 233 8 10 12 14 0
d 234 8 10 12 14 0
d 235 8 10 12 14 0
d 236 8 10 12 14 0
d 237 8 10 12 14 0
d 238 8 10 12 14 0
d 239 8 10 12 14 0
d 240 8 10 12 14 0
d 241 8 10 12 14 0
d 242 8 10 12 14 0
d 243 8 10 12 14 0
d 244 8 10 12 14 0
d 245 8 10 12 14 0
d 246 8 10 12 14 0
d 247 8 10 12 14 0
d 248 8 10 12 14 0
d 249 8 10 12 14 0
d 250 8 10 12 14 0
d 251 8 10 12 14 0
d 252 8 10 12 14 0
d 253 8 10 12 14 0
d 254 8 10 12 14 0
d 255 8 10 12 14 0
d 256 8 10 12 14 0
d 257 8 10 12 14 0
d 258 8 10 12 14 0
d 259 8 10 12 14 0
d 260 8 10 12 14 0
d 261 8 10 12 14 0
d 262 8 10 12 14 0
d 263 8 10 12 14 0
d 264 8 10 12 14 0
d 265 8 10 12 14 0
d 266 8 10 12 14 0
d 267 8 10 12 14 0
d 268 8 10 12 14 0
d 269 8 10 12 14 0
d 270 8 10 12 14 0
d 271 8 10 12 14 0
d 272 8 10 12 14 0
d 273 8 10 12 14 0
d 274 8 10 12 14 0
d 275 8 10 12 14 0
d 276 8 10 12 14 0
d 277 8 10 12 14 0
d 278 8 10 12 14 0
d 279 8 10 12 14 0
d 280 8 10 12 14 0
d 281 8 10 12 14 0
d 282 8 10 12 14 0
d 283 8 10 12 14 0
d 284 8 10 12 14 0
d 285 8 10 12 14 0
d 286 8 10 12 14 0
d 287 8 10 12 14 0
d 288 8 10 12 14 0
d 289 8 10 12 14 0
d 290 8 10 12 14 0
d 291 8 10 12 14 0
d 292 8 10 12 14 0
d 293 8 10 12 14 0
d 294 8 10 12 14 0
d 295 8 10 12 14 0
d 296 8 10 12 14 0
d 297 8 10 12 14 0
d 298 8 10 12 14 0
d 299 8 10 12 14 0
d 300 8 10 12 14 0
d 301 8 10 12 14 0
d 302 8 10 12 14 0
d 303 8 10 12 14 0
d 304 8 10 12 14 0
d 305 8 10 12 14 0
d 306 8 10 12 14 0
d 307 8 10 12 14 0
d 308 8 10 12 14 0
d 309 8 10 12 14 0
d 310 8 10 12 14 0
d 311 8 10 12 14 0
d 312 8 10 12 14 0
d 313 8 10 12 14 0
d 314 8 10 12 14 0
d 315 14 0
d 316 8 10 12 14 0
d 317 8 10 12 14 0
d 318 8 10 12 14 0
d 319 8 10 12 14 0
d 320 8 10 12 14 0
d 321 8 10 12 14 0
d 322 8 10 12 14 0
d 323 8 10 12 14 0
d 324 8 10 12 14 0
d 325 8 10 12 14 0
d 326 8 10 12 14 0
d 327 8 10 12 14 0
d 328 8 10 12 14 0
d 329 8 10 12 14 0
d 330 8 10 12 14 0
d 331 8 10 12 14 0
d 332 8 10 12 14 0
d 333 8 10 12 14 0
d 334 8 10 12 14 0
d 335 8 10 12 14 0
d 336 8 10 12 14 0
d 337 8 10 12 14 0
d 338 8 10 12 14 0
d 339 8 10 12 14 0
d 340 8 10 12 14 0
d 341 8 10 12 14 0
d 342 8 10 12 14 0
d 343 8 10 12 14 0
d 344 8 10 12 14 0
d 345 8 10 12 14 0
d 346 8 10 12 14 0
d 347 8 10 12 14 0
d 348 8 10 12 14 0
d 349 8 10 12 14 0
d 350 8 10 12 14 0
d 351 8 10 12 14 0
d 352 8 10 12 14 0
d 353 8 10 12 14 0
d 354 8 10 12 14 0
d 355 8 10 12 14 0
d 356 8 10 12 14 0
d 357 8 10 12 14 0
d 358 8 10 12 14 0
d 359 8 10 12 14 0
d 360 8 10 12 14 0
d 361 8 10 12 14 0
d 362 8 10 12 14 0
d 363 8 10 12 14 0
d 364 8 10 12 14 0
d 365 8 10 12 14 0
d 366 8 10 12 14 0
d 367 8 10 12 14 0
d 368 8 10 12 14 0
d 369 8 10 12 14 0
d 370 8 10 12 14 0
d 371 8 10 12 14 0
d 372 8 10 12 14 0
d 373 8 10 12 14 0
d 374 8 10 12 14 0
d 375 8 10 12 14 0
d 376 8 10 12 14 0
d 377 8 10 12 14 0
d 378 8 10 12 14 0
d 379 8 10 12 14 0
d 380 8 10 12 14 0
d 381 8 10 12 14 0
d 382 8 10 12 14 0
d 383 8 10 12 14 0
d 384 8 10 12 14 0
d 385 8 10 12 14 0
d 386 8 10 12 14 0
d 387 8 10 12 14 0
d 388 8 10 12 14 0
d 389 8 10 12 14 0
d 390 8 10 12 14 0
d 391 8 10 12 14 0
d 392 8 10 12 14 0
d 393 8 10 12 14 0
d 394 8 10 12 14 0
d 395 8 10 12 14 0
d 396 8 10 12 14 0
d 397 8 10 12 14 0
d 398 8 10 12 14 0
d 399 8 10 12 14 0
d 400 8 10 12 14 0
d 401 8 10 12 14 0
d 402 8 10 12 14 0
d 403 8 10 12 14 0
d 404 8 10 12 14 0
d 405 8 10 12 14 0
d 406 8 10 12 14 0
d 407 8 10 12 14 0
d 408 8 10 12 14 0
d 409 8 10 12 14 0
d 410 8 10 12 14 0
d 411 8 10 12 14 0
d 412 8 10 12 14 0
d 413 8 10 12 14 0
d 414 8 10 12 14 0
d 415 8 10 12 14 0
d 416 8 10 12 14 0
d 417 8 10 12 14 0
d 418 8 10 12 14 0
d 419 8 10 12 14 0
d 420 8 10 12 14 0
d 421 8 10 12 14 0
d 422 8 10 12 14 0
d 423 8 10 12 14 0
d 424 8 10 12 14 0
d 425 8 10 12 14 0
d 426 8 10 12 14 0
d 427 8 10 12 14 0
d 428 8 10 12 14 0
d 429 8 10 12 14 0
d 430 8 10 12 14 0
d 431 8 10 12 14 0
d 432 8 10 12 14 0
d 433 8 10 12 14 0
d 434 8 10 12 14 0
d 435 8 10 12 14 0
d 436 8 10 12 14 0
d 437 8 10 12 14 0
d 438 8 10 12 14 0
d 439 8 10 12 14 0
d 440 8 10 12 14 0
d 441 8 10 12 14 0
d 442 8 10 12 14 0
d 443 8 10 12 14 0
d 444 8 10 12 14 0
d 445 8 10 12 14 0
d 446 8 10 12 14 0
d 447 8 10 12 14 0
d 448 8 10 12 14 0
d 449 8 10 12 14 0
d 450 8 10 12 14 0
d 451 8 10 12 14 0
d 452 8 10 12 14 0
d 453 8 10 12 14 0
d 454 8 10 12 14 0
d 455 8 10 12 14 0
d 456 8 10 12 14 0
d 457 8 10 12 14 0
d 458 8 10 12 14 0
d 459 8 10 12 14 0
d 460 8 10 12 14 0
d 461 8 10 12 14 0
d 462 8 10 12 14 0
d 463 8 10 12 14 0
d 464 8 10 12 14 0
d 465 8 10 12 14 0
d 466 8 10 12 14 0
d 467 8 10 12 14 0
d 468 8 10 12 14 0
d 469 8 10 12 14 0
d 470 8 10 12 14 0
d 471 8 10 12 14 0
d 472 8 10 12 14 0
d 473 8 10 12 14 0
d 474 8 10 12 14 0
d 475 8 10 12 14 0
d 476 8 10 12 14 0
d 477 8 10 12 14 0
d 478 8 10 12 14 0
d 479 8 10 12 14 0
d 480 8 10 12 14 0
d 481 8 10 12 14 0
d 482 8 10 12 14 0
d 483 8 10 12 14 0
d 484 8 10 12 14 0
d 485 8 10 12 14 0
d 486 8 10 12 14 0
d 487 8 10 12 14 0
d 488 8 10 12 14 0
d 489 8 10 12 14 0
d 490 8 10 12 14 0
d 491 8 10 12 14 0
d 492 8 10 12 14 0
d 493 8 10 12 14 0
d 494 8 10 12 14 0
d 495 8 10 12 14 0
d 496 8 10 12 14 0
d 497 8 10 12 14 0
d 498 8 10 12 14 0
d 499 8 10 12 14 0
d 500 8 10 12 14 0
d 501 8 10 12 14 0
d 502 8 10 12 14 0
d 503 8 10 12 14 0
d 504 8 10 12 14 0
d 505 8 10 12 14 0
d 506 8 10 12 14 0
d 507 8 10 12 14 0
d 508 8 10 12 14 0
d 509 8 10 12 14 0
d 510 8 10 12 14 0
d 511 8 10 12 14 0
d 512 8 10 12 14 0
d 513 8 10 12 14 0
d 514 8 10 12 14 0
d 515 8 10 12 14 0
d 516 8 10 12 14 0
d 517 8 10 12 14 0
d 518 8 10 12 14 0
d 519 8 10 12 14 0
d 520 8 10 12 14 0
d 521 8 10 12 14 0
d 522 8 10 12 14 0
d 523 8 10 12 14 0
d 524 8 10 12 14 0
d 525 8 10 12 14 0
d 526 8 10 12 14 0
d 527 8 10 12 14 0
d 528 8 10 12 14 0
d 529 8 10 12 14 0
d 530 8 10 0
d 531 8 10 12 0
d 532 8 10 12 14 0
d 533 8 10 12 14 0
-3 1 0
-3 2 0
3 -1 -2 0
-5 3 0
-5 4 0
5 -3 -4 0
-7 5 0
-7 6 0
7 -5 -6 0
-9 7 0
-9 8 0
9 -7 -8 0
-11 9 0
-11 10 0
11 -9 -10 0
-13 11 0
-13 12 0
13 -11 -12 0
-15 13 0
-15 14 0
15 -13 -14 0
16 1 0
-16 -1 0
17 2 0
-17 -2 0
-18 16 0
-18 17 0
18 -16 -17 0
-19 18 0
-19 4 0
19 -18 -4 0
-20 19 0
-20 6 0
20 -19 -6 0
-21 20 0
-21 8 0
21 -20 -8 0
-22 21 0
-22 10 0
22 -21 -10 0
-23 22 0
-23 12 0
23 -22 -12 0
-24 23 0
-24 14 0
24 -23 -14 0
25 -15 0
25 -24 0
-25 15 24 0
26 4 0
-26 -4 0
-27 3 0
-27 26 0
27 -3 -26 0
-28 27 0
-28 6 0
28 -27 -6 0
-29 28 0
-29 8 0
29 -28 -8 0
-30 29 0
-30 10 0
30 -29 -10 0
-31 30 0
-31 12 0
31 -30 -12 0
-32 31 0
-32 14 0
32 -31 -14 0
33 -25 0
33 -32 0
-33 25 32 0
-34 16 0
-34 2 0
34 -16 -2 0
-35 34 0
-35 26 0
35 -34 -26 0
-36 35 0
-36 6 0
36 -35 -6 0
-37 36 0
-37 8 0
37 -36 -8 0
-38 37 0
-38 10 0
38 -37 -10 0
-39 38 0
-39 12 0
39 -38 -12 0
-40 39 0
-40 14 0
40 -39 -14 0
41 -33 0
41 -40 0
-41 33 40 0
42 6 0
-42 -6 0
-43 5 0
-43 42 0
43 -5 -42 0
-44 43 0
-44 8 0
44 -43 -8 0
-45 44 0
-45 10 0
45 -44 -10 0
-46 45 0
-46 12 0
46 -45 -12 0
-47 46 0
-47 14 0
47 -46 -14 0
48 -41 0
48 -47 0
-48 41 47 0
-49 1 0
-49 17 0
49 -1 -17 0
-50 49 0
-50 4 0
50 -49 -4 0
-51 50 0
-51 42 0
51 -50 -42 0
-52 51 0
-52 8 0
52 -51 -8 0
-53 52 0
-53 10 0
53 -52 -10 0
-54 53 0
-54 12 0
54 -53 -12 0
-55 54 0
-55 14 0
55 -54 -14 0
56 -48 0
56 -55 0
-56 48 55 0
-57 19 0
-57 42 0
57 -19 -42 0
-58 57 0
-58 8 0
58 -57 -8 0
-59 58 0
-59 10 0
59 -58 -10 0
-60 59 0
-60 12 0
60 -59 -12 0
-61 60 0
-61 14 0
61 -60 -14 0
62 -56 0
62 -61 0
-62 56 61 0
-63 27 0
-63 42 0
63 -27 -42 0
-64 63 0
-64 8 0
64 -63 -8 0
-65 64 0
-65 10 0
65 -64 -10 0
-66 65 0
-66 12 0
66 -65 -12 0
-67 66 0
-67 14 0
67 -66 -14 0
68 -62 0
68 -67 0
-68 62 67 0
-69 49 0
-69 26 0
69 -49 -26 0
-70 69 0
-70 42 0
70 -69 -42 0
-71 70 0
-71 8 0
71 -70 -8 0
-72 71 0
-72 10 0
72 -71 -10 0
-73 72 0
-73 12 0
73 -72 -12 0
-74 73 0
-74 14 0
74 -73 -14 0
75 -68 0
75 -74 0
-75 68 74 0
-76 18 0
-76 26 0
76 -18 -26 0
-77 76 0
-77 42 0
77 -76 -42 0
-78 77 0
-78 8 0
78 -77 -8 0
-79 78 0
-79 10 0
79 -78 -10 0
-80 79 0
-80 12 0
80 -79 -12 0
-81 80 0
-81 14 0
81 -80 -14 0
82 -75 0
82 -81 0
-82 75 81 0
-83 34 0
-83 4 0
83 -34 -4 0
-84 83 0
-84 6 0
84 -83 -6 0
85 8 0
-85 -8 0
-86 84 0
-86 85 0
86 -84 -85 0
-87 86 0
-87 10 0
87 -86 -10 0
-88 87 0
-88 12 0
88 -87 -12 0
-89 88 0
-89 14 0
89 -88 -14 0
90 -82 0
90 -89 0
-90 82 89 0
-91 50 0
-91 6 0
91 -50 -6 0
-92 91 0
-92 85 0
92 -91 -85 0
-93 92 0
-93 10 0
93 -92 -10 0
-94 93 0
-94 12 0
94 -93 -12 0
-95 94 0
-95 14 0
95 -94 -14 0
96 -90 0
96 -95 0
-96 90 95 0
-97 20 0
-97 85 0
97 -20 -85 0
-98 97 0
-98 10 0
98 -97 -10 0
-99 98 0
-99 12 0
99 -98 -12 0
-100 99 0
-100 14 0
100 -99 -14 0
101 -96 0
101 -100 0
-101 96 100 0
-102 28 0
-102 85 0
102 -28 -85 0
-103 102 0
-103 10 0
103 -102 -10 0
-104 103 0
-104 12 0
104 -103 -12 0
-105 104 0
-105 14 0
105 -104 -14 0
106 -101 0
106 -105 0
-106 101 105 0
-107 76 0
-107 6 0
107 -76 -6 0
-108 107 0
-108 85 0
108 -107 -85 0
-109 108 0
-109 10 0
109 -108 -10 0
-110 109 0
-110 12 0
110 -109 -12 0
-111 110 0
-111 14 0
111 -110 -14 0
112 -106 0
112 -111 0
-112 106 111 0
-113 43 0
-113 85 0
113 -43 -85 0
-114 113 0
-114 10 0
114 -113 -10 0
-115 114 0
-115 12 0
115 -114 -12 0
-116 115 0
-116 14 0
116 -115 -14 0
117 -112 0
117 -116 0
-117 112 116 0
-118 51 0
-118 85 0
118 -51 -85 0
-119 118 0
-119 10 0
119 -118 -10 0
-120 119 0
-120 12 0
120 -119 -12 0
-121 120 0
-121 14 0
121 -120 -14 0
122 -117 0
122 -121 0
-122 117 121 0
-123 70 0
-123 85 0
123 -70 -85 0
-124 123 0
-124 10 0
124 -123 -10 0
-125 124 0
-125 12 0
125 -124 -12 0
-126 125 0
-126 14 0
126 -125 -14 0
127 -122 0
127 -126 0
-127 122 126 0
-128 77 0
-128 85 0
128 -77 -85 0
-129 128 0
-129 10 0
129 -128 -10 0
-130 129 0
-130 12 0
130 -129 -12 0
-131 130 0
-131 14 0
131 -130 -14 0
132 -127 0
132 -131 0
-132 127 131 0
133 10 0
-133 -10 0
-134 9 0
-134 133 0
134 -9 -133 0
-135 134 0
-135 12 0
135 -134 -12 0
-136 135 0
-136 14 0
136 -135 -14 0
137 -132 0
137 -136 0
-137 132 136 0
-138 29 0
-138 133 0
138 -29 -133 0
-139 138 0
-139 12 0
139 -138 -12 0
-140 139 0
-140 14 0
140 -139 -14 0
141 -137 0
141 -140 0
-141 137 140 0
-142 107 0
-142 8 0
142 -107 -8 0
-143 142 0
-143 133 0
143 -142 -133 0
-144 143 0
-144 12 0
144 -143 -12 0
-145 144 0
-145 14 0
145 -144 -14 0
146 -141 0
146 -145 0
-146 141 145 0
-147 64 0
-147 133 0
147 -64 -133 0
-148 147 0
-148 12 0
148 -147 -12 0
-149 148 0
-149 14 0
149 -148 -14 0
150 -146 0
150 -149 0
-150 146 149 0
-151 92 0
-151 133 0
151 -92 -133 0
-152 151 0
-152 12 0
152 -151 -12 0
-153 152 0
-153 14 0
153 -152 -14 0
154 -150 0
154 -153 0
-154 150 153 0
-155 97 0
-155 133 0
155 -97 -133 0
-156 155 0
-156 12 0
156 -155 -12 0
-157 156 0
-157 14 0
157 -156 -14 0
158 -154 0
158 -157 0
-158 154 157 0
-159 113 0
-159 133 0
159 -113 -133 0
-160 159 0
-160 12 0
160 -159 -12 0
-161 160 0
-161 14 0
161 -160 -14 0
162 -158 0
162 -161 0
-162 158 161 0
-163 83 0
-163 42 0
163 -83 -42 0
-164 163 0
-164 85 0
164 -163 -85 0
-165 164 0
-165 133 0
165 -164 -133 0
-166 165 0
-166 12 0
166 -165 -12 0
-167 166 0
-167 14 0
167 -166 -14 0
168 -162 0
168 -167 0
-168 162 167 0
-169 118 0
-169 133 0
169 -118 -133 0
-170 169 0
-170 12 0
170 -169 -12 0
-171 170 0
-171 14 0
171 -170 -14 0
172 -168 0
172 -171 0
-172 168 171 0
-173 57 0
-173 85 0
173 -57 -85 0
-174 173 0
-174 133 0
174 -173 -133 0
-175 174 0
-175 12 0
175 -174 -12 0
-176 175 0
-176 14 0
176 -175 -14 0
177 -172 0
177 -176 0
-177 172 176 0
-178 35 0
-178 42 0
178 -35 -42 0
-179 178 0
-179 85 0
179 -178 -85 0
-180 179 0
-180 133 0
180 -179 -133 0
-181 180 0
-181 12 0
181 -180 -12 0
-182 181 0
-182 14 0
182 -181 -14 0
183 -177 0
183 -182 0
-183 177 182 0
-184 123 0
-184 133 0
184 -123 -133 0
-185 184 0
-185 12 0
185 -184 -12 0
-186 185 0
-186 14 0
186 -185 -14 0
187 -183 0
187 -186 0
-187 183 186 0
-188 128 0
-188 133 0
188 -128 -133 0
-189 188 0
-189 12 0
189 -188 -12 0
-190 189 0
-190 14 0
190 -189 -14 0
191 -187 0
191 -190 0
-191 187 190 0
-192 84 0
-192 8 0
192 -84 -8 0
-193 192 0
-193 10 0
193 -192 -10 0
194 12 0
-194 -12 0
-195 193 0
-195 194 0
195 -193 -194 0
-196 195 0
-196 14 0
196 -195 -14 0
197 -191 0
197 -196 0
-197 191 196 0
-198 91 0
-198 8 0
198 -91 -8 0
-199 198 0
-199 10 0
199 -198 -10 0
-200 199 0
-200 194 0
200 -199 -194 0
-201 200 0
-201 14 0
201 -200 -14 0
202 -197 0
202 -201 0
-202 197 201 0
-203 38 0
-203 194 0
203 -38 -194 0
-204 203 0
-204 14 0
204 -203 -14 0
205 -202 0
205 -204 0
-205 202 204 0
-206 53 0
-206 194 0
206 -53 -194 0
-207 206 0
-207 14 0
207 -206 -14 0
208 -205 0
208 -207 0
-208 205 207 0
-209 59 0
-209 194 0
209 -59 -194 0
-210 209 0
-210 14 0
210 -209 -14 0
211 -208 0
211 -210 0
-211 208 210 0
-212 65 0
-212 194 0
212 -65 -194 0
-213 212 0
-213 14 0
213 -212 -14 0
214 -211 0
214 -213 0
-214 211 213 0
-215 178 0
-215 8 0
215 -178 -8 0
-216 215 0
-216 10 0
216 -215 -10 0
-217 216 0
-217 194 0
217 -216 -194 0
-218 217 0
-218 14 0
218 -217 -14 0
219 -214 0
219 -218 0
-219 214 218 0
-220 93 0
-220 194 0
220 -93 -194 0
-221 220 0
-221 14 0
221 -220 -14 0
222 -219 0
222 -221 0
-222 219 221 0
-223 98 0
-223 194 0
223 -98 -194 0
-224 223 0
-224 14 0
224 -223 -14 0
225 -222 0
225 -224 0
-225 222 224 0
-226 103 0
-226 194 0
226 -103 -194 0
-227 226 0
-227 14 0
227 -226 -14 0
228 -225 0
228 -227 0
-228 225 227 0
-229 69 0
-229 6 0
229 -69 -6 0
-230 229 0
-230 85 0
230 -229 -85 0
-231 230 0
-231 10 0
231 -230 -10 0
-232 231 0
-232 194 0
232 -231 -194 0
-233 232 0
-233 14 0
233 -232 -14 0
234 -228 0
234 -233 0
-234 228 233 0
-235 164 0
-235 10 0
235 -164 -10 0
-236 235 0
-236 194 0
236 -235 -194 0
-237 236 0
-237 14 0
237 -236 -14 0
238 -234 0
238 -237 0
-238 234 237 0
-239 119 0
-239 194 0
239 -119 -194 0
-240 239 0
-240 14 0
240 -239 -14 0
241 -238 0
241 -240 0
-241 238 240 0
-242 63 0
-242 85 0
242 -63 -85 0
-243 242 0
-243 10 0
243 -242 -10 0
-244 243 0
-244 194 0
244 -243 -194 0
-245 244 0
-245 14 0
245 -244 -14 0
246 -241 0
246 -245 0
-246 241 245 0
-247 179 0
-247 10 0
247 -179 -10 0
-248 247 0
-248 194 0
248 -247 -194 0
-249 248 0
-249 14 0
249 -248 -14 0
250 -246 0
250 -249 0
-250 246 249 0
-251 124 0
-251 194 0
251 -124 -194 0
-252 251 0
-252 14 0
252 -251 -14 0
253 -250 0
253 -252 0
-253 250 252 0
-254 134 0
-254 194 0
254 -134 -194 0
-255 254 0
-255 14 0
255 -254 -14 0
256 -253 0
256 -255 0
-256 253 255 0
-257 192 0
-257 133 0
257 -192 -133 0
-258 257 0
-258 194 0
258 -257 -194 0
-259 258 0
-259 14 0
259 -258 -14 0
260 -256 0
260 -259 0
-260 256 259 0
-261 198 0
-261 133 0
261 -198 -133 0
-262 261 0
-262 194 0
262 -261 -194 0
-263 262 0
-263 14 0
263 -262 -14 0
264 -260 0
264 -263 0
-264 260 263 0
-265 138 0
-265 194 0
265 -138 -194 0
-266 265 0
-266 14 0
266 -265 -14 0
267 -264 0
267 -266 0
-267 264 266 0
-268 37 0
-268 133 0
268 -37 -133 0
-269 268 0
-269 194 0
269 -268 -194 0
-270 269 0
-270 14 0
270 -269 -14 0
271 -267 0
271 -270 0
-271 267 270 0
-272 143 0
-272 194 0
272 -143 -194 0
-273 272 0
-273 14 0
273 -272 -14 0
274 -271 0
274 -273 0
-274 271 273 0
-275 52 0
-275 133 0
275 -52 -133 0
-276 275 0
-276 194 0
276 -275 -194 0
-277 276 0
-277 14 0
277 -276 -14 0
278 -274 0
278 -277 0
-278 274 277 0
-279 58 0
-279 133 0
279 -58 -133 0
-280 279 0
-280 194 0
280 -279 -194 0
-281 280 0
-281 14 0
281 -280 -14 0
282 -278 0
282 -281 0
-282 278 281 0
-283 215 0
-283 133 0
283 -215 -133 0
-284 283 0
-284 194 0
284 -283 -194 0
-285 284 0
-285 14 0
285 -284 -14 0
286 -282 0
286 -285 0
-286 282 285 0
-287 86 0
-287 133 0
287 -86 -133 0
-288 287 0
-288 194 0
288 -287 -194 0
-289 288 0
-289 14 0
289 -288 -14 0
290 -286 0
290 -289 0
-290 286 289 0
-291 108 0
-291 133 0
291 -108 -133 0
-292 291 0
-292 194 0
292 -291 -194 0
-293 292 0
-293 14 0
293 -292 -14 0
294 -290 0
294 -293 0
-294 290 293 0
-295 159 0
-295 194 0
295 -159 -194 0
-296 295 0
-296 14 0
296 -295 -14 0
297 -294 0
297 -296 0
-297 294 296 0
-298 169 0
-298 194 0
298 -169 -194 0
-299 298 0
-299 14 0
299 -298 -14 0
300 -297 0
300 -299 0
-300 297 299 0
-301 174 0
-301 194 0
301 -174 -194 0
-302 301 0
-302 14 0
302 -301 -14 0
303 -300 0
303 -302 0
-303 300 302 0
-304 242 0
-304 133 0
304 -242 -133 0
-305 304 0
-305 194 0
305 -304 -194 0
-306 305 0
-306 14 0
306 -305 -14 0
307 -303 0
307 -306 0
-307 303 306 0
-308 184 0
-308 194 0
308 -184 -194 0
-309 308 0
-309 14 0
309 -308 -14 0
310 -307 0
310 -309 0
-310 307 309 0
-311 188 0
-311 194 0
311 -188 -194 0
-312 311 0
-312 14 0
312 -311 -14 0
313 -310 0
313 -312 0
-313 310 312 0
-314 199 0
-314 12 0
314 -199 -12 0
315 14 0
-315 -14 0
-316 314 0
-316 315 0
316 -314 -315 0
317 -313 0
317 -316 0
-317 313 316 0
-318 39 0
-318 315 0
318 -39 -315 0
319 -317 0
319 -318 0
-319 317 318 0
-320 142 0
-320 10 0
320 -142 -10 0
-321 320 0
-321 12 0
321 -320 -12 0
-322 321 0
-322 315 0
322 -321 -315 0
323 -319 0
323 -322 0
-323 319 322 0
-324 46 0
-324 315 0
324 -46 -315 0
325 -323 0
325 -324 0
-325 323 324 0
-326 163 0
-326 8 0
326 -163 -8 0
-327 326 0
-327 10 0
327 -326 -10 0
-328 327 0
-328 12 0
328 -327 -12 0
-329 328 0
-329 315 0
329 -328 -315 0
330 -325 0
330 -329 0
-330 325 329 0
-331 66 0
-331 315 0
331 -66 -315 0
332 -330 0
332 -331 0
-332 330 331 0
-333 73 0
-333 315 0
333 -73 -315 0
334 -332 0
334 -333 0
-334 332 333 0
-335 88 0
-335 315 0
335 -88 -315 0
336 -334 0
336 -335 0
-336 334 335 0
-337 94 0
-337 315 0
337 -94 -315 0
338 -336 0
338 -337 0
-338 336 337 0
-339 99 0
-339 315 0
339 -99 -315 0
340 -338 0
340 -339 0
-340 338 339 0
-341 36 0
-341 85 0
341 -36 -85 0
-342 341 0
-342 10 0
342 -341 -10 0
-343 342 0
-343 12 0
343 -342 -12 0
-344 343 0
-344 315 0
344 -343 -315 0
345 -340 0
345 -344 0
-345 340 344 0
-346 231 0
-346 12 0
346 -231 -12 0
-347 346 0
-347 315 0
347 -346 -315 0
348 -345 0
348 -347 0
-348 345 347 0
-349 110 0
-349 315 0
349 -110 -315 0
350 -348 0
350 -349 0
-350 348 349 0
-351 173 0
-351 10 0
351 -173 -10 0
-352 351 0
-352 12 0
352 -351 -12 0
-353 352 0
-353 315 0
353 -352 -315 0
354 -350 0
354 -353 0
-354 350 353 0
-355 247 0
-355 12 0
355 -247 -12 0
-356 355 0
-356 315 0
356 -355 -315 0
357 -354 0
357 -356 0
-357 354 356 0
-358 125 0
-358 315 0
358 -125 -315 0
359 -357 0
359 -358 0
-359 357 358 0
-360 261 0
-360 12 0
360 -261 -12 0
-361 360 0
-361 315 0
361 -360 -315 0
362 -359 0
362 -361 0
-362 359 361 0
-363 21 0
-363 133 0
363 -21 -133 0
-364 363 0
-364 12 0
364 -363 -12 0
-365 364 0
-365 315 0
365 -364 -315 0
366 -362 0
366 -365 0
-366 362 365 0
-367 139 0
-367 315 0
367 -139 -315 0
368 -366 0
368 -367 0
-368 366 367 0
-369 268 0
-369 12 0
369 -268 -12 0
-370 369 0
-370 315 0
370 -369 -315 0
371 -368 0
371 -370 0
-371 368 370 0
-372 326 0
-372 133 0
372 -326 -133 0
-373 372 0
-373 12 0
373 -372 -12 0
-374 373 0
-374 315 0
374 -373 -315 0
375 -371 0
375 -374 0
-375 371 374 0
-376 275 0
-376 12 0
376 -275 -12 0
-377 376 0
-377 315 0
377 -376 -315 0
378 -375 0
378 -377 0
-378 375 377 0
-379 279 0
-379 12 0
379 -279 -12 0
-380 379 0
-380 315 0
380 -379 -315 0
381 -378 0
381 -380 0
-381 378 380 0
-382 148 0
-382 315 0
382 -148 -315 0
383 -381 0
383 -382 0
-383 381 382 0
-384 71 0
-384 133 0
384 -71 -133 0
-385 384 0
-385 12 0
385 -384 -12 0
-386 385 0
-386 315 0
386 -385 -315 0
387 -383 0
387 -386 0
-387 383 386 0
-388 78 0
-388 133 0
388 -78 -133 0
-389 388 0
-389 12 0
389 -388 -12 0
-390 389 0
-390 315 0
390 -389 -315 0
391 -387 0
391 -390 0
-391 387 390 0
-392 7 0
-392 85 0
392 -7 -85 0
-393 392 0
-393 133 0
393 -392 -133 0
-394 393 0
-394 12 0
394 -393 -12 0
-395 394 0
-395 315 0
395 -394 -315 0
396 -391 0
396 -395 0
-396 391 395 0
-397 287 0
-397 12 0
397 -287 -12 0
-398 397 0
-398 315 0
398 -397 -315 0
399 -396 0
399 -398 0
-399 396 398 0
-400 152 0
-400 315 0
400 -152 -315 0
401 -399 0
401 -400 0
-401 399 400 0
-402 156 0
-402 315 0
402 -156 -315 0
403 -401 0
403 -402 0
-403 401 402 0
-404 102 0
-404 133 0
404 -102 -133 0
-405 404 0
-405 12 0
405 -404 -12 0
-406 405 0
-406 315 0
406 -405 -315 0
407 -403 0
407 -406 0
-407 403 406 0
-408 341 0
-408 133 0
408 -341 -133 0
-409 408 0
-409 12 0
409 -408 -12 0
-410 409 0
-410 315 0
410 -409 -315 0
411 -407 0
411 -410 0
-411 407 410 0
-412 230 0
-412 133 0
412 -230 -133 0
-413 412 0
-413 12 0
413 -412 -12 0
-414 413 0
-414 315 0
414 -413 -315 0
415 -411 0
415 -414 0
-415 411 414 0
-416 291 0
-416 12 0
416 -291 -12 0
-417 416 0
-417 315 0
417 -416 -315 0
418 -415 0
418 -417 0
-418 415 417 0
-419 160 0
-419 315 0
419 -160 -315 0
420 -418 0
420 -419 0
-420 418 419 0
-421 166 0
-421 315 0
421 -166 -315 0
422 -420 0
422 -421 0
-422 420 421 0
-423 170 0
-423 315 0
423 -170 -315 0
424 -422 0
424 -423 0
-424 422 423 0
-425 304 0
-425 12 0
425 -304 -12 0
-426 425 0
-426 315 0
426 -425 -315 0
427 -424 0
427 -426 0
-427 424 426 0
-428 181 0
-428 315 0
428 -181 -315 0
429 -427 0
429 -428 0
-429 427 428 0
-430 185 0
-430 315 0
430 -185 -315 0
431 -429 0
431 -430 0
-431 429 430 0
-432 229 0
-432 8 0
432 -229 -8 0
-433 432 0
-433 10 0
433 -432 -10 0
-434 433 0
-434 194 0
434 -433 -194 0
-435 434 0
-435 315 0
435 -434 -315 0
436 -431 0
436 -435 0
-436 431 435 0
-437 320 0
-437 194 0
437 -320 -194 0
-438 437 0
-438 315 0
438 -437 -315 0
439 -436 0
439 -438 0
-439 436 438 0
-440 45 0
-440 194 0
440 -45 -194 0
-441 440 0
-441 315 0
441 -440 -315 0
442 -439 0
442 -441 0
-442 439 441 0
-443 327 0
-443 194 0
443 -327 -194 0
-444 443 0
-444 315 0
444 -443 -315 0
445 -442 0
445 -444 0
-445 442 444 0
-446 209 0
-446 315 0
446 -209 -315 0
447 -445 0
447 -446 0
-447 445 446 0
-448 217 0
-448 315 0
448 -217 -315 0
449 -447 0
449 -448 0
-449 447 448 0
-450 392 0
-450 10 0
450 -392 -10 0
-451 450 0
-451 194 0
451 -450 -194 0
-452 451 0
-452 315 0
452 -451 -315 0
453 -449 0
453 -452 0
-453 449 452 0
-454 87 0
-454 194 0
454 -87 -194 0
-455 454 0
-455 315 0
455 -454 -315 0
456 -453 0
456 -455 0
-456 453 455 0
-457 223 0
-457 315 0
457 -223 -315 0
458 -456 0
458 -457 0
-458 456 457 0
-459 226 0
-459 315 0
459 -226 -315 0
460 -458 0
460 -459 0
-460 458 459 0
-461 232 0
-461 315 0
461 -232 -315 0
462 -460 0
462 -461 0
-462 460 461 0
-463 109 0
-463 194 0
463 -109 -194 0
-464 463 0
-464 315 0
464 -463 -315 0
465 -462 0
465 -464 0
-465 462 464 0
-466 114 0
-466 194 0
466 -114 -194 0
-467 466 0
-467 315 0
467 -466 -315 0
468 -465 0
468 -467 0
-468 465 467 0
-469 251 0
-469 315 0
469 -251 -315 0
470 -468 0
470 -469 0
-470 468 469 0
-471 129 0
-471 194 0
471 -129 -194 0
-472 471 0
-472 315 0
472 -471 -315 0
473 -470 0
473 -472 0
-473 470 472 0
-474 254 0
-474 315 0
474 -254 -315 0
475 -473 0
475 -474 0
-475 473 474 0
-476 363 0
-476 194 0
476 -363 -194 0
-477 476 0
-477 315 0
477 -476 -315 0
478 -475 0
478 -477 0
-478 475 477 0
-479 432 0
-479 133 0
479 -432 -133 0
-480 479 0
-480 194 0
480 -479 -194 0
-481 480 0
-481 315 0
481 -480 -315 0
482 -478 0
482 -481 0
-482 478 481 0
-483 272 0
-483 315 0
483 -272 -315 0
484 -482 0
484 -483 0
-484 482 483 0
-485 44 0
-485 133 0
485 -44 -133 0
-486 485 0
-486 194 0
486 -485 -194 0
-487 486 0
-487 315 0
487 -486 -315 0
488 -484 0
488 -487 0
-488 484 487 0
-489 372 0
-489 194 0
489 -372 -194 0
-490 489 0
-490 315 0
490 -489 -315 0
491 -488 0
491 -490 0
-491 488 490 0
-492 280 0
-492 315 0
492 -280 -315 0
493 -491 0
493 -492 0
-493 491 492 0
-494 147 0
-494 194 0
494 -147 -194 0
-495 494 0
-495 315 0
495 -494 -315 0
496 -493 0
496 -495 0
-496 493 495 0
-497 384 0
-497 194 0
497 -384 -194 0
-498 497 0
-498 315 0
498 -497 -315 0
499 -496 0
499 -498 0
-499 496 498 0
-500 388 0
-500 194 0
500 -388 -194 0
-501 500 0
-501 315 0
501 -500 -315 0
502 -499 0
502 -501 0
-502 499 501 0
-503 393 0
-503 194 0
503 -393 -194 0
-504 503 0
-504 315 0
504 -503 -315 0
505 -502 0
505 -504 0
-505 502 504 0
-506 288 0
-506 315 0
506 -288 -315 0
507 -505 0
507 -506 0
-507 505 506 0
-508 151 0
-508 194 0
508 -151 -194 0
-509 508 0
-509 315 0
509 -508 -315 0
510 -507 0
510 -509 0
-510 507 509 0
-511 408 0
-511 194 0
511 -408 -194 0
-512 511 0
-512 315 0
512 -511 -315 0
513 -510 0
513 -512 0
-513 510 512 0
-514 412 0
-514 194 0
514 -412 -194 0
-515 514 0
-515 315 0
515 -514 -315 0
516 -513 0
516 -515 0
-516 513 515 0
-517 292 0
-517 315 0
517 -292 -315 0
518 -516 0
518 -517 0
-518 516 517 0
-519 165 0
-519 194 0
519 -165 -194 0
-520 519 0
-520 315 0
520 -519 -315 0
521 -518 0
521 -520 0
-521 518 520 0
-522 298 0
-522 315 0
522 -298 -315 0
523 -521 0
523 -522 0
-523 521 522 0
-524 301 0
-524 315 0
524 -301 -315 0
525 -523 0
525 -524 0
-525 523 524 0
-526 308 0
-526 315 0
526 -308 -315 0
527 -525 0
527 -526 0
-527 525 526 0
-528 311 0
-528 315 0
528 -311 -315 0
529 -527 0
529 -528 0
-529 527 528 0
530 -8 10 0
530 8 -10 0
-530 -8 -10 0
-530 8 10 0
531 -530 12 0
531 530 -12 0
-531 -530 -12 0
-531 530 12 0
532 -531 14 0
532 531 -14 0
-532 -531 -14 0
-532 531 14 0
533 -529 -532 0
533 529 532 0
-533 -529 532 0
-533 529 -532 0
533 0
